Read MPS format model from file dat/rmp/4node-base_16384_10.mps
Reading time = 0.59 seconds
: 16444 rows, 49296 columns, 1539580 nonzeros
Gurobi Optimizer version 9.0.0 build v9.0.0rc2 (linux64)
Optimize a model with 16444 rows, 49296 columns and 1539580 nonzeros
Model fingerprint: 0x0dea501c
Coefficient statistics:
  Matrix range     [4e-04, 2e+01]
  Objective range  [1e-02, 1e+04]
  Bounds range     [0e+00, 0e+00]
  RHS range        [1e+00, 8e+01]
Ordering time: 0.02s

Barrier statistics:
 AA' NZ     : 7.348e+05
 Factor NZ  : 9.196e+05 (roughly 34 MBytes of memory)
 Factor Ops : 5.826e+07 (less than 1 second per iteration)
 Threads    : 1

                  Objective                Residual
Iter       Primal          Dual         Primal    Dual     Compl     Time
   0   2.00856820e+07  0.00000000e+00  2.90e+02 2.40e+02  4.37e+04     0s
   1   5.24807523e+05 -8.25530484e+07  7.12e+00 9.51e+02  2.93e+03     1s
   2   6.74099693e+03 -1.90375659e+07  5.24e-11 2.59e+01  3.96e+02     1s
   3   6.08651820e+02 -4.57924427e+06  5.92e-12 5.81e+00  9.49e+01     1s
   4  -2.39045367e+01 -2.46119396e+05  3.40e-12 1.87e-01  5.10e+00     1s
   5  -2.21150573e+02 -2.04030984e+04  4.27e-12 2.30e-02  4.18e-01     1s
   6  -2.47970231e+02 -8.31055922e+02  1.84e-10 4.05e-04  1.20e-02     1s
   7  -2.92154838e+02 -5.92678622e+02  3.22e-09 1.53e-04  6.15e-03     1s
   8  -3.16053164e+02 -4.02720197e+02  1.79e-08 8.32e-06  1.76e-03     1s
   9  -3.34996384e+02 -3.72974658e+02  8.16e-08 1.29e-06  7.71e-04     1s
  10  -3.43899025e+02 -3.65665138e+02  1.40e-07 1.37e-07  4.42e-04     1s
  11  -3.46708010e+02 -3.63387977e+02  2.88e-07 8.89e-08  3.39e-04     1s
  12  -3.49631665e+02 -3.62074168e+02  4.99e-07 2.55e-08  2.53e-04     2s
  13  -3.53298976e+02 -3.60971478e+02  2.26e-06 1.36e-08  1.56e-04     2s
  14  -3.54917565e+02 -3.60170721e+02  1.54e-06 7.51e-09  1.07e-04     2s
  15  -3.56188867e+02 -3.59650413e+02  9.59e-07 3.96e-09  7.03e-05     2s
  16  -3.57038140e+02 -3.59198053e+02  7.67e-07 2.13e-09  4.38e-05     2s
  17  -3.57715865e+02 -3.58988815e+02  4.29e-07 1.18e-09  2.58e-05     2s
  18  -3.58065087e+02 -3.58871112e+02  2.59e-07 6.40e-10  1.64e-05     2s
  19  -3.58268090e+02 -3.58797702e+02  1.77e-07 3.62e-10  1.07e-05     3s
  20  -3.58384782e+02 -3.58757147e+02  1.35e-07 2.37e-10  7.56e-06     3s
  21  -3.58480148e+02 -3.58717168e+02  8.60e-08 1.10e-10  4.81e-06     3s
  22  -3.58549326e+02 -3.58699984e+02  5.06e-08 5.48e-11  3.06e-06     4s
  23  -3.58587180e+02 -3.58693822e+02  3.84e-08 3.61e-11  2.16e-06     4s
  24  -3.58628306e+02 -3.58689277e+02  2.46e-08 2.16e-11  1.24e-06     4s
  25  -3.58643602e+02 -3.58684470e+02  1.78e-08 1.46e-11  8.29e-07     5s
  26  -3.58659270e+02 -3.58683460e+02  1.10e-07 1.46e-11  4.91e-07     5s
  27  -3.58659286e+02 -3.58683327e+02  7.19e-07 1.46e-11  4.88e-07     5s
  28  -3.58660036e+02 -3.58682621e+02  1.87e-06 1.46e-11  4.59e-07     6s
  29  -3.58660028e+02 -3.58682589e+02  2.61e-06 1.46e-11  4.58e-07     6s
  30  -3.58670161e+02 -3.58682444e+02  1.39e-06 1.46e-11  2.49e-07     6s
  31  -3.58670765e+02 -3.58682349e+02  3.20e-06 7.28e-12  2.35e-07     6s
  32  -3.58674195e+02 -3.58682210e+02  2.26e-06 2.91e-11  1.62e-07     6s
  33  -3.58674213e+02 -3.58682210e+02  2.71e-06 2.91e-11  1.62e-07     6s
  34  -3.58674882e+02 -3.58682209e+02  2.47e-06 1.46e-11  1.49e-07     7s
  35  -3.58674946e+02 -3.58682203e+02  5.90e-06 1.46e-11  1.48e-07     7s
  36  -3.58675923e+02 -3.58682229e+02  5.12e-06 1.46e-11  1.28e-07     7s
  37  -3.58676375e+02 -3.58682253e+02  4.83e-06 1.46e-11  1.20e-07     7s
  38  -3.58676599e+02 -3.58682229e+02  1.25e-05 1.46e-11  1.16e-07     7s
  39  -3.58676677e+02 -3.58682230e+02  1.08e-05 1.46e-11  1.15e-07     7s
  40  -3.58676633e+02 -3.58682216e+02  1.02e-05 1.46e-11  1.14e-07     8s
  41  -3.58676815e+02 -3.58682212e+02  2.45e-05 1.46e-11  1.12e-07     8s
  42  -3.58676918e+02 -3.58682218e+02  3.52e-05 7.28e-12  1.09e-07     8s
  43  -3.58678127e+02 -3.58682228e+02  2.77e-05 1.46e-11  8.37e-08     8s
  44  -3.58679749e+02 -3.58682202e+02  1.79e-05 1.46e-11  5.08e-08     8s
  45  -3.58680074e+02 -3.58682202e+02  3.57e-05 2.91e-11  4.98e-08     8s
  46  -3.58680212e+02 -3.58682181e+02  3.34e-05 1.46e-11  4.61e-08     9s
  47  -3.58680241e+02 -3.58682181e+02  5.13e-05 1.46e-11  4.54e-08     9s
  48  -3.58681181e+02 -3.58682180e+02  8.38e-05 1.46e-11  3.79e-08     9s
  49  -3.58681309e+02 -3.58682182e+02  7.48e-05 1.46e-11  3.31e-08     9s
  50  -3.58681731e+02 -3.58682169e+02  3.61e-05 1.46e-11  1.62e-08     9s
  51  -3.58682422e+02 -3.58682166e+02  8.10e-05 2.91e-11  8.74e-09     9s
  52  -3.58682249e+02 -3.58682162e+02  3.17e-05 1.46e-11  3.39e-09     9s
  53  -3.58682227e+02 -3.58682158e+02  2.48e-05 1.46e-11  2.66e-09    10s
  54  -3.58682215e+02 -3.58682158e+02  2.49e-05 1.46e-11  2.65e-09    10s
  55  -3.58682035e+02 -3.58682158e+02  3.85e-06 1.46e-11  1.62e-09    10s
  56  -3.58682187e+02 -3.58682157e+02  4.38e-06 1.46e-11  8.31e-13    10s
  57  -3.58682157e+02 -3.58682157e+02  2.98e-08 4.37e-11  6.59e-18    10s

Barrier solved model in 57 iterations and 10.06 seconds
Optimal objective -3.58682157e+02

Solve time: 10.064589818
Barrier iterations: 57
